90
2781
5
54
71
47
52
88
0 1
0 2
0 3
0 4
0 5
0 7
0 9
0 10
0 11
0 12
0 13
0 14
0 15
0 17
0 18
0 19
0 20
0 22
0 27
0 28
0 30
0 31
0 32
0 33
0 36
0 38
0 39
0 41
0 42
0 43
0 44
0 45
0 46
0 48
0 49
0 51
0 52
0 53
0 55
0 56
0 57
0 58
0 59
0 60
0 61
0 62
0 63
0 64
0 65
0 67
0 68
0 69
0 70
0 71
0 72
0 73
0 74
0 75
0 76
0 77
0 78
0 79
0 80
0 81
0 82
0 83
0 84
0 85
0 87
0 89
1 2
1 3
1 4
1 5
1 6
1 7
1 8
1 9
1 10
1 11
1 12
1 13
1 16
1 17
1 19
1 20
1 21
1 22
1 23
1 24
1 25
1 27
1 30
1 31
1 34
1 35
1 36
1 37
1 39
1 40
1 41
1 42
1 43
1 44
1 47
1 48
1 49
1 50
1 52
1 53
1 54
1 55
1 56
1 58
1 59
1 60
1 61
1 64
1 65
1 66
1 67
1 68
1 71
1 73
1 74
1 77
1 78
1 81
1 83
1 84
1 85
1 86
1 88
1 89
2 4
2 6
2 7
2 10
2 11
2 12
2 13
2 14
2 15
2 18
2 19
2 23
2 24
2 25
2 27
2 29
2 31
2 32
2 35
2 36
2 37
2 38
2 40
2 43
2 44
2 45
2 46
2 47
2 50
2 51
2 53
2 54
2 55
2 56
2 57
2 58
2 59
2 62
2 65
2 66
2 67
2 69
2 71
2 72
2 73
2 75
2 79
2 80
2 81
2 83
2 84
2 86
2 88
2 89
3 4
3 5
3 6
3 7
3 8
3 10
3 11
3 12
3 13
3 14
3 15
3 17
3 18
3 20
3 21
3 22
3 23
3 24
3 25
3 26
3 28
3 29
3 31
3 32
3 35
3 36
3 37
3 38
3 39
3 40
3 43
3 44
3 45
3 47
3 48
3 49
3 50
3 52
3 53
3 54
3 55
3 57
3 58
3 59
3 60
3 62
3 63
3 64
3 65
3 66
3 67
3 68
3 69
3 71
3 72
3 73
3 74
3 75
3 76
3 79
3 80
3 81
3 82
3 83
3 84
3 85
3 86
3 87
3 88
3 89
4 6
4 7
4 8
4 9
4 10
4 11
4 13
4 16
4 18
4 19
4 20
4 21
4 22
4 25
4 26
4 27
4 28
4 29
4 30
4 32
4 33
4 34
4 35
4 36
4 40
4 42
4 43
4 44
4 45
4 46
4 48
4 49
4 52
4 53
4 56
4 59
4 62
4 63
4 65
4 67
4 68
4 69
4 70
4 71
4 72
4 73
4 74
4 76
4 77
4 78
4 79
4 81
4 83
4 86
4 87
4 88
4 89
5 6
5 7
5 9
5 10
5 11
5 13
5 15
5 16
5 18
5 19
5 20
5 21
5 22
5 24
5 25
5 27
5 30
5 32
5 35
5 36
5 37
5 38
5 39
5 40
5 41
5 42
5 43
5 44
5 45
5 47
5 48
5 49
5 50
5 51
5 52
5 55
5 56
5 58
5 59
5 60
5 61
5 62
5 63
5 64
5 65
5 67
5 68
5 70
5 71
5 72
5 73
5 74
5 75
5 77
5 78
5 79
5 80
5 81
5 82
5 85
5 86
5 89
6 7
6 8
6 11
6 12
6 13
6 14
6 15
6 17
6 18
6 19
6 20
6 23
6 24
6 27
6 28
6 30
6 31
6 33
6 34
6 36
6 38
6 40
6 41
6 42
6 43
6 44
6 45
6 47
6 48
6 49
6 50
6 52
6 53
6 54
6 55
6 56
6 58
6 59
6 61
6 62
6 65
6 68
6 69
6 70
6 72
6 73
6 75
6 76
6 77
6 79
6 80
6 81
6 85
6 86
6 87
6 88
7 8
7 9
7 10
7 13
7 17
7 19
7 20
7 22
7 23
7 25
7 26
7 28
7 30
7 32
7 33
7 34
7 36
7 37
7 40
7 41
7 43
7 47
7 48
7 49
7 51
7 53
7 54
7 56
7 57
7 58
7 59
7 61
7 63
7 64
7 65
7 66
7 67
7 68
7 70
7 71
7 72
7 73
7 74
7 75
7 76
7 77
7 78
7 79
7 80
7 81
7 82
7 83
7 84
7 85
7 87
7 88
7 89
8 9
8 14
8 15
8 16
8 17
8 20
8 22
8 23
8 24
8 25
8 26
8 27
8 29
8 31
8 32
8 35
8 37
8 38
8 39
8 41
8 42
8 43
8 44
8 45
8 46
8 47
8 48
8 49
8 50
8 52
8 53
8 54
8 55
8 56
8 57
8 59
8 60
8 61
8 62
8 64
8 66
8 67
8 68
8 69
8 71
8 73
8 74
8 76
8 77
8 78
8 79
8 81
8 82
8 83
8 85
8 86
8 87
8 88
9 10
9 11
9 12
9 13
9 14
9 15
9 16
9 18
9 19
9 20
9 21
9 23
9 24
9 26
9 27
9 28
9 32
9 34
9 36
9 37
9 38
9 39
9 41
9 42
9 44
9 45
9 46
9 47
9 48
9 49
9 52
9 53
9 56
9 57
9 58
9 61
9 62
9 63
9 64
9 65
9 66
9 68
9 69
9 70
9 72
9 74
9 75
9 77
9 78
9 79
9 80
9 82
9 84
9 85
9 86
9 87
9 89
10 11
10 14
10 16
10 17
10 18
10 19
10 22
10 23
10 24
10 26
10 27
10 28
10 30
10 32
10 33
10 34
10 38
10 39
10 42
10 43
10 44
10 45
10 46
10 47
10 48
10 49
10 51
10 53
10 54
10 55
10 58
10 59
10 60
10 61
10 62
10 63
10 66
10 67
10 69
10 70
10 71
10 72
10 73
10 75
10 77
10 78
10 79
10 82
10 83
10 84
10 86
10 87
10 89
11 12
11 13
11 14
11 15
11 16
11 17
11 18
11 20
11 21
11 22
11 23
11 26
11 27
11 28
11 29
11 31
11 32
11 34
11 35
11 36
11 37
11 39
11 40
11 42
11 43
11 45
11 46
11 47
11 51
11 52
11 53
11 54
11 56
11 57
11 58
11 59
11 60
11 62
11 63
11 64
11 65
11 67
11 68
11 72
11 73
11 75
11 76
11 77
11 78
11 80
11 81
11 82
11 85
11 86
11 87
12 13
12 15
12 17
12 20
12 22
12 23
12 24
12 25
12 26
12 27
12 28
12 29
12 31
12 32
12 33
12 37
12 38
12 39
12 40
12 41
12 42
12 43
12 45
12 46
12 47
12 48
12 49
12 50
12 51
12 53
12 54
12 56
12 57
12 60
12 64
12 65
12 66
12 67
12 69
12 71
12 73
12 75
12 77
12 78
12 79
12 80
12 81
12 83
12 84
12 86
12 87
13 14
13 16
13 17
13 18
13 19
13 20
13 21
13 22
13 24
13 25
13 26
13 29
13 31
13 34
13 35
13 36
13 37
13 38
13 41
13 42
13 43
13 48
13 49
13 50
13 51
13 52
13 53
13 54
13 55
13 57
13 59
13 61
13 63
13 64
13 66
13 67
13 68
13 70
13 71
13 73
13 75
13 77
13 78
13 80
13 81
13 82
13 83
13 85
13 86
13 87
13 88
14 15
14 16
14 17
14 18
14 20
14 22
14 25
14 26
14 28
14 29
14 30
14 32
14 35
14 36
14 37
14 38
14 39
14 40
14 42
14 43
14 47
14 48
14 49
14 50
14 52
14 53
14 55
14 56
14 57
14 58
14 59
14 61
14 62
14 63
14 64
14 65
14 66
14 69
14 70
14 71
14 73
14 74
14 75
14 76
14 77
14 78
14 79
14 80
14 81
14 82
14 83
14 84
14 85
14 86
14 87
14 88
14 89
15 17
15 18
15 19
15 20
15 23
15 25
15 28
15 30
15 31
15 32
15 33
15 34
15 35
15 36
15 37
15 39
15 41
15 43
15 44
15 45
15 46
15 47
15 48
15 50
15 51
15 52
15 53
15 54
15 57
15 58
15 59
15 60
15 61
15 65
15 66
15 67
15 68
15 69
15 70
15 71
15 72
15 73
15 78
15 82
15 84
15 85
15 86
15 88
15 89
16 17
16 18
16 22
16 23
16 24
16 26
16 27
16 29
16 30
16 31
16 32
16 33
16 35
16 37
16 40
16 42
16 44
16 45
16 47
16 52
16 53
16 54
16 55
16 57
16 58
16 59
16 60
16 61
16 62
16 63
16 64
16 65
16 66
16 67
16 69
16 73
16 75
16 76
16 77
16 78
16 81
16 82
16 84
16 85
16 86
16 87
16 88
16 89
17 19
17 23
17 25
17 26
17 27
17 28
17 29
17 31
17 33
17 35
17 36
17 37
17 38
17 39
17 40
17 41
17 42
17 44
17 45
17 47
17 48
17 50
17 51
17 52
17 54
17 57
17 58
17 60
17 61
17 63
17 65
17 67
17 68
17 69
17 70
17 71
17 72
17 74
17 75
17 77
17 78
17 80
17 81
17 82
17 83
17 86
17 87
17 88
17 89
18 19
18 20
18 22
18 25
18 26
18 27
18 28
18 29
18 30
18 31
18 32
18 35
18 36
18 37
18 38
18 39
18 41
18 43
18 44
18 45
18 46
18 49
18 50
18 51
18 53
18 54
18 55
18 56
18 57
18 58
18 59
18 60
18 62
18 63
18 64
18 65
18 66
18 69
18 70
18 74
18 75
18 76
18 78
18 80
18 82
18 83
18 84
18 86
18 87
19 20
19 21
19 22
19 23
19 24
19 25
19 26
19 28
19 29
19 30
19 32
19 33
19 34
19 35
19 37
19 38
19 40
19 42
19 43
19 46
19 47
19 48
19 50
19 52
19 53
19 54
19 55
19 56
19 57
19 58
19 59
19 60
19 61
19 62
19 63
19 64
19 65
19 66
19 68
19 69
19 70
19 72
19 73
19 74
19 75
19 77
19 78
19 80
19 81
19 82
19 84
19 85
19 86
19 87
19 88
20 21
20 23
20 24
20 26
20 27
20 28
20 29
20 31
20 32
20 33
20 35
20 36
20 37
20 38
20 40
20 41
20 42
20 45
20 46
20 47
20 48
20 49
20 50
20 51
20 52
20 54
20 55
20 57
20 58
20 59
20 61
20 62
20 63
20 64
20 65
20 66
20 70
20 71
20 73
20 75
20 77
20 79
20 80
20 81
20 82
20 85
20 86
20 87
21 22
21 23
21 24
21 25
21 26
21 27
21 29
21 30
21 31
21 33
21 34
21 35
21 36
21 37
21 39
21 40
21 41
21 42
21 43
21 44
21 45
21 46
21 47
21 48
21 50
21 52
21 54
21 55
21 57
21 58
21 59
21 60
21 61
21 62
21 63
21 64
21 65
21 66
21 67
21 68
21 69
21 70
21 71
21 73
21 74
21 79
21 80
21 81
21 82
21 83
21 84
21 85
21 86
21 88
21 89
22 23
22 24
22 25
22 26
22 29
22 30
22 32
22 33
22 35
22 36
22 38
22 39
22 41
22 42
22 43
22 45
22 46
22 47
22 48
22 49
22 50
22 52
22 53
22 54
22 57
22 58
22 59
22 61
22 62
22 64
22 65
22 66
22 69
22 70
22 71
22 73
22 74
22 76
22 77
22 78
22 79
22 80
22 82
22 83
22 85
22 86
22 87
22 89
23 24
23 25
23 26
23 27
23 28
23 29
23 30
23 33
23 35
23 36
23 37
23 38
23 39
23 40
23 42
23 43
23 45
23 47
23 49
23 50
23 51
23 52
23 54
23 55
23 57
23 59
23 60
23 61
23 63
23 65
23 66
23 68
23 69
23 71
23 73
23 74
23 75
23 76
23 77
23 79
23 80
23 82
23 83
23 85
23 86
24 25
24 26
24 27
24 28
24 29
24 30
24 31
24 34
24 36
24 37
24 38
24 39
24 40
24 41
24 42
24 43
24 44
24 45
24 46
24 47
24 50
24 51
24 52
24 53
24 58
24 59
24 60
24 61
24 63
24 64
24 65
24 67
24 68
24 70
24 71
24 72
24 73
24 75
24 76
24 77
24 78
24 79
24 80
24 81
24 82
24 83
24 84
24 85
24 87
24 88
24 89
25 26
25 27
25 28
25 29
25 30
25 31
25 34
25 35
25 37
25 38
25 39
25 40
25 41
25 44
25 46
25 47
25 48
25 49
25 51
25 53
25 54
25 55
25 57
25 58
25 59
25 60
25 61
25 63
25 64
25 65
25 66
25 68
25 69
25 70
25 71
25 72
25 73
25 74
25 76
25 77
25 79
25 81
25 82
25 84
25 85
25 86
25 87
25 88
25 89
26 27
26 29
26 30
26 33
26 34
26 35
26 36
26 40
26 41
26 42
26 43
26 45
26 46
26 49
26 50
26 51
26 53
26 54
26 55
26 56
26 57
26 58
26 59
26 61
26 62
26 64
26 65
26 66
26 68
26 69
26 70
26 73
26 75
26 76
26 77
26 78
26 79
26 81
26 83
26 84
26 87
27 28
27 29
27 33
27 34
27 35
27 39
27 42
27 44
27 48
27 49
27 50
27 51
27 52
27 54
27 56
27 60
27 61
27 64
27 65
27 66
27 68
27 70
27 71
27 72
27 73
27 75
27 76
27 78
27 79
27 80
27 81
27 82
27 84
27 86
27 88
27 89
28 30
28 31
28 34
28 35
28 36
28 38
28 39
28 40
28 41
28 42
28 43
28 44
28 45
28 46
28 47
28 48
28 49
28 50
28 51
28 54
28 55
28 56
28 59
28 60
28 61
28 63
28 66
28 67
28 68
28 70
28 72
28 74
28 76
28 77
28 80
28 81
28 82
28 83
28 84
28 85
28 86
28 87
28 88
28 89
29 30
29 32
29 33
29 34
29 35
29 36
29 37
29 39
29 40
29 42
29 43
29 44
29 45
29 46
29 49
29 50
29 53
29 54
29 55
29 57
29 58
29 64
29 65
29 66
29 67
29 70
29 72
29 75
29 76
29 77
29 80
29 81
29 86
29 89
30 31
30 32
30 34
30 35
30 37
30 38
30 39
30 42
30 44
30 45
30 47
30 48
30 49
30 50
30 51
30 52
30 53
30 54
30 55
30 56
30 57
30 59
30 61
30 62
30 64
30 65
30 67
30 68
30 69
30 70
30 71
30 72
30 73
30 75
30 76
30 77
30 78
30 81
30 82
30 83
30 84
30 85
30 88
31 32
31 33
31 34
31 38
31 41
31 42
31 43
31 44
31 46
31 47
31 49
31 52
31 56
31 57
31 58
31 59
31 60
31 62
31 64
31 65
31 66
31 67
31 68
31 69
31 71
31 72
31 74
31 75
31 76
31 77
31 79
31 80
31 81
31 82
31 83
31 84
31 85
31 86
31 87
31 88
32 33
32 34
32 35
32 38
32 39
32 40
32 41
32 42
32 43
32 44
32 45
32 48
32 50
32 52
32 53
32 54
32 55
32 56
32 57
32 59
32 60
32 62
32 63
32 64
32 66
32 67
32 68
32 69
32 70
32 71
32 72
32 75
32 77
32 79
32 80
32 81
32 83
32 85
32 86
32 88
33 34
33 35
33 36
33 37
33 38
33 39
33 40
33 42
33 44
33 45
33 46
33 47
33 48
33 49
33 50
33 52
33 54
33 55
33 56
33 57
33 59
33 60
33 61
33 62
33 65
33 66
33 67
33 68
33 69
33 70
33 71
33 72
33 74
33 77
33 78
33 79
33 81
33 82
33 83
33 84
33 87
33 88
34 35
34 37
34 38
34 41
34 42
34 43
34 44
34 46
34 47
34 48
34 51
34 54
34 55
34 56
34 57
34 60
34 61
34 62
34 64
34 68
34 69
34 70
34 71
34 74
34 79
34 80
34 81
34 82
34 83
34 85
34 89
35 36
35 37
35 38
35 39
35 40
35 42
35 43
35 44
35 47
35 49
35 51
35 52
35 54
35 56
35 57
35 58
35 60
35 61
35 62
35 65
35 67
35 70
35 71
35 72
35 73
35 75
35 76
35 81
35 83
35 84
35 85
35 86
35 87
35 89
36 37
36 38
36 39
36 40
36 41
36 42
36 44
36 45
36 46
36 48
36 49
36 50
36 51
36 53
36 54
36 55
36 56
36 57
36 61
36 63
36 66
36 67
36 71
36 73
36 74
36 76
36 77
36 79
36 80
36 81
36 82
36 83
36 84
36 87
36 88
36 89
37 38
37 39
37 40
37 41
37 42
37 43
37 46
37 47
37 49
37 50
37 52
37 53
37 54
37 56
37 57
37 58
37 59
37 61
37 62
37 63
37 64
37 68
37 71
37 74
37 75
37 76
37 77
37 78
37 79
37 80
37 81
37 82
37 83
37 84
37 85
37 86
37 89
38 40
38 42
38 43
38 45
38 46
38 47
38 50
38 51
38 52
38 53
38 54
38 55
38 56
38 57
38 58
38 59
38 60
38 62
38 64
38 65
38 66
38 68
38 69
38 71
38 73
38 76
38 77
38 78
38 79
38 81
38 83
38 86
38 87
38 89
39 41
39 43
39 44
39 45
39 46
39 47
39 48
39 49
39 50
39 52
39 53
39 54
39 55
39 56
39 57
39 58
39 59
39 60
39 61
39 63
39 64
39 65
39 66
39 69
39 70
39 71
39 72
39 73
39 74
39 75
39 77
39 79
39 80
39 81
39 82
39 83
39 84
39 87
39 88
39 89
40 42
40 43
40 44
40 46
40 48
40 49
40 51
40 52
40 55
40 56
40 61
40 62
40 63
40 65
40 67
40 68
40 69
40 70
40 71
40 72
40 75
40 77
40 78
40 79
40 80
40 81
40 82
40 83
40 84
40 86
40 87
40 88
41 42
41 43
41 44
41 45
41 47
41 51
41 52
41 55
41 56
41 58
41 59
41 60
41 61
41 62
41 63
41 64
41 66
41 67
41 68
41 69
41 71
41 72
41 74
41 77
41 78
41 83
41 84
41 86
41 87
41 88
41 89
42 43
42 44
42 45
42 47
42 49
42 52
42 53
42 54
42 55
42 56
42 57
42 58
42 59
42 60
42 62
42 63
42 64
42 65
42 67
42 68
42 69
42 70
42 71
42 72
42 74
42 77
42 78
42 80
42 84
42 85
42 86
42 87
42 88
42 89
43 44
43 45
43 46
43 47
43 48
43 49
43 51
43 52
43 53
43 54
43 55
43 57
43 58
43 59
43 63
43 64
43 67
43 70
43 72
43 74
43 75
43 76
43 77
43 78
43 79
43 82
43 84
43 85
43 86
43 87
43 89
44 45
44 47
44 48
44 49
44 50
44 51
44 52
44 54
44 58
44 59
44 62
44 63
44 65
44 67
44 68
44 69
44 70
44 72
44 73
44 75
44 77
44 79
44 80
44 81
44 82
44 83
44 84
44 86
44 87
44 88
45 47
45 50
45 51
45 53
45 54
45 55
45 57
45 59
45 61
45 63
45 64
45 66
45 67
45 68
45 69
45 70
45 71
45 73
45 75
45 77
45 78
45 79
45 80
45 82
45 84
45 86
45 87
45 88
45 89
46 47
46 49
46 50
46 51
46 52
46 54
46 55
46 56
46 57
46 59
46 60
46 62
46 63
46 64
46 65
46 68
46 69
46 70
46 71
46 73
46 76
46 77
46 78
46 79
46 80
46 81
46 82
46 83
46 84
46 86
46 87
46 88
46 89
47 48
47 49
47 50
47 52
47 53
47 56
47 57
47 58
47 59
47 60
47 62
47 63
47 65
47 67
47 68
47 70
47 71
47 73
47 74
47 76
47 77
47 79
47 80
47 81
47 82
47 83
47 84
47 85
47 87
47 88
48 50
48 51
48 52
48 54
48 56
48 57
48 58
48 59
48 60
48 61
48 63
48 64
48 65
48 67
48 68
48 69
48 71
48 72
48 73
48 74
48 75
48 76
48 77
48 78
48 80
48 81
48 84
48 85
48 86
48 87
48 88
48 89
49 50
49 51
49 52
49 53
49 55
49 56
49 57
49 59
49 61
49 62
49 66
49 67
49 68
49 70
49 71
49 73
49 75
49 80
49 81
49 82
49 83
49 84
49 86
49 89
50 52
50 53
50 54
50 55
50 57
50 58
50 61
50 64
50 65
50 67
50 68
50 69
50 71
50 72
50 75
50 77
50 78
50 80
50 81
50 84
50 89
51 52
51 54
51 55
51 56
51 60
51 62
51 63
51 64
51 68
51 70
51 71
51 72
51 74
51 75
51 77
51 78
51 80
51 81
51 82
51 83
51 84
51 85
51 86
51 87
51 88
52 53
52 55
52 56
52 57
52 58
52 59
52 60
52 61
52 62
52 64
52 65
52 66
52 67
52 68
52 69
52 71
52 72
52 73
52 74
52 75
52 76
52 77
52 78
52 79
52 82
52 83
52 84
52 85
52 86
52 87
52 88
52 89
53 54
53 56
53 57
53 59
53 61
53 64
53 65
53 66
53 68
53 71
53 73
53 74
53 75
53 76
53 77
53 79
53 80
53 82
53 83
53 84
53 85
53 88
53 89
54 55
54 56
54 57
54 59
54 60
54 64
54 65
54 66
54 67
54 68
54 69
54 72
54 73
54 74
54 75
54 76
54 77
54 78
54 79
54 80
54 81
54 82
54 83
54 85
54 86
54 88
54 89
55 56
55 57
55 58
55 59
55 60
55 61
55 65
55 67
55 68
55 70
55 71
55 73
55 74
55 75
55 76
55 77
55 78
55 79
55 80
55 82
55 83
55 84
55 85
55 86
55 87
55 88
55 89
56 57
56 58
56 60
56 63
56 64
56 65
56 66
56 68
56 69
56 70
56 71
56 73
56 75
56 76
56 77
56 83
56 84
56 85
56 86
56 87
56 88
56 89
57 58
57 59
57 60
57 61
57 62
57 63
57 64
57 65
57 68
57 69
57 70
57 73
57 76
57 77
57 78
57 81
57 82
57 84
57 85
57 86
57 88
58 59
58 60
58 62
58 63
58 64
58 65
58 66
58 67
58 68
58 69
58 70
58 71
58 73
58 75
58 76
58 77
58 78
58 79
58 80
58 81
58 85
58 86
58 87
58 88
58 89
59 60
59 63
59 64
59 65
59 67
59 69
59 70
59 72
59 73
59 74
59 76
59 77
59 79
59 81
59 85
59 87
59 88
59 89
60 61
60 63
60 64
60 65
60 67
60 68
60 69
60 70
60 72
60 73
60 75
60 77
60 79
60 80
60 81
60 82
60 83
60 84
60 85
60 86
60 87
60 89
61 63
61 65
61 66
61 69
61 70
61 71
61 73
61 74
61 75
61 76
61 77
61 78
61 79
61 80
61 81
61 82
61 84
61 85
61 86
61 88
61 89
62 65
62 66
62 67
62 68
62 70
62 71
62 72
62 73
62 75
62 76
62 77
62 80
62 83
62 84
62 87
62 88
63 64
63 65
63 67
63 69
63 71
63 73
63 76
63 77
63 78
63 79
63 80
63 82
63 86
63 88
64 65
64 67
64 68
64 69
64 71
64 72
64 73
64 74
64 75
64 78
64 80
64 81
64 82
64 83
64 84
64 85
64 87
64 88
65 66
65 68
65 72
65 73
65 75
65 76
65 77
65 78
65 79
65 81
65 83
65 84
65 85
65 89
66 68
66 69
66 70
66 75
66 76
66 77
66 78
66 79
66 81
66 83
66 84
66 85
66 86
66 87
66 88
66 89
67 68
67 70
67 73
67 75
67 77
67 78
67 81
67 82
67 83
67 85
67 87
67 88
67 89
68 69
68 70
68 72
68 73
68 74
68 75
68 77
68 79
68 80
68 81
68 83
68 84
68 88
68 89
69 70
69 71
69 72
69 75
69 77
69 81
69 82
69 83
69 84
69 85
69 86
69 87
69 89
70 71
70 72
70 73
70 74
70 75
70 76
70 77
70 78
70 79
70 80
70 81
70 82
70 83
70 85
70 86
70 87
70 89
71 72
71 74
71 75
71 78
71 80
71 83
71 85
71 87
71 88
71 89
72 73
72 75
72 77
72 78
72 81
72 84
72 85
72 86
72 88
72 89
73 74
73 75
73 77
73 80
73 81
73 82
73 83
73 87
73 89
74 75
74 76
74 77
74 78
74 79
74 81
74 82
74 83
74 84
74 85
74 86
74 87
74 89
75 78
75 79
75 81
75 82
75 84
75 87
75 88
76 78
76 79
76 80
76 81
76 82
76 83
76 85
76 87
76 88
77 78
77 79
77 81
77 82
77 86
77 88
77 89
78 79
78 84
78 85
78 86
78 88
78 89
79 83
79 84
79 85
79 86
79 87
79 88
79 89
80 81
80 84
80 85
80 86
80 87
80 88
81 82
81 83
81 84
81 85
81 86
81 87
82 83
82 84
82 85
82 86
83 84
83 85
83 86
83 87
83 88
83 89
84 86
85 88
85 89
86 87
86 88
87 89
82 28 0 88 63 31 79 13 89 30 68 12 86 54 69 84 85 58 18 27 70 55
40 34 51 9 10 76 44 87 35 5 62 1 21 16 47 48 56 25 37 46 7 57
2 39 61 65 38 3 22 15 11 8 74 32 23 42 29 45 78 67 50 20 6 73
41 72 49 53 81 19 36 80 64 33 77 66 17 71 60 75 24 26 52 14 43 59
83 4
